ATSP_runtime_files/empty-32-32_p_safe_0.8_typeOfTest_1_Mtsp.atsp
NAME : mtspf
COMMENT : file for mtspf test
TYPE : ATSP
DIMENSION : 9
EDGE_WEIGHT_TYPE : EXPLICIT
EDGE_WEIGHT_FORMAT : FULL_MATRIX
EDGE_WEIGHT_SECTION
0 0 0 17 43 40 19 27 32
0 0 0 13 13 10 11 7 -1000000
0 0 0 32 24 21 -1000000 26 1000000
0 0 0 0 26 23 16 10 21
0 0 0 26 0 5 24 16 11
0 0 0 23 -1000000 0 21 13 8
0 0 0 16 24 21 0 -1000000 13
0 0 0 1000000 16 13 10 0 15
0 0 0 21 11 -1000000 13 15 0
