ATSP_runtime_files/empty-32-32_p_safe_0.8_typeOfTest_1_Mtsp.tour
NAME : mtspf.-4999983.tour
COMMENT : Length = -4999983
COMMENT : Found by LKH-3 [Keld Helsgaun] Sun May  4 11:59:33 2025
TYPE : TOUR
DIMENSION : 9
TOUR_SECTION
1
4
2
9
6
5
3
7
8
-1
EOF
